1 3 100 285160.92
1 3 200 281314.47
1 3 300 288951.75
2 3 100 437925.30
2 3 200 416446.67
2 3 300 415611.69
3 3 100 372512.04
3 3 200 375586.39
3 3 300 370570.30
4 3 100 345788.94
4 3 200 332087.10
4 3 300 354241.51
5 3 100 306742.27
5 3 200 284896.07
5 3 300 284332.73
